Gurobi Optimizer version 11.0.0 build v11.0.0rc2 (linux64 - "Debian GNU/Linux 11 (bullseye)")

CPU model: 12th Gen Intel(R) Core(TM) i7-12700KF, instruction set [SSE2|AVX|AVX2]
Thread count: 20 physical cores, 20 logical processors, using up to 4 threads

Optimize a model with 3125583 rows, 2772764 columns and 23347735 nonzeros
Model fingerprint: 0xd5337cc4
Variable types: 3 continuous, 2772761 integer (2772761 binary)
Coefficient statistics:
  Matrix range     [1e+00, 3e+01]
  Objective range  [2e+00, 3e+01]
  Bounds range     [1e+00, 1e+00]
  RHS range        [1e+00, 2e+03]
Presolve removed 1271382 rows and 1383202 columns (presolve time = 5s) ...
Presolve removed 1271868 rows and 1383688 columns (presolve time = 10s) ...
Presolve removed 1310304 rows and 1383688 columns (presolve time = 15s) ...
Presolve removed 1766628 rows and 1383688 columns (presolve time = 20s) ...
Presolve removed 1766789 rows and 1383690 columns (presolve time = 25s) ...
Presolve removed 1766789 rows and 1383690 columns (presolve time = 30s) ...
Presolve removed 1766789 rows and 1383690 columns (presolve time = 35s) ...
Presolve removed 1766789 rows and 1383690 columns (presolve time = 40s) ...
Presolve removed 1766789 rows and 1383690 columns (presolve time = 45s) ...
Presolve removed 1766789 rows and 1383690 columns (presolve time = 50s) ...
Presolve removed 1766789 rows and 1383690 columns
Presolve time: 53.90s
Presolved: 1358794 rows, 1389074 columns, 15158644 nonzeros
Variable types: 0 continuous, 1389074 integer (1389074 binary)
Starting NoRel heuristic
Found heuristic solution: objective 1962.0000000
Deterministic concurrent LP optimizer: primal simplex, dual simplex, and barrier
Showing barrier log only...

Root barrier log...

Ordering time: 0.03s

Barrier statistics:
 Dense cols : 59
 AA' NZ     : 1.826e+05
 Factor NZ  : 9.530e+05 (roughly 14 MB of memory)
 Factor Ops : 1.673e+08 (less than 1 second per iteration)
 Threads    : 2

                  Objective                Residual
Iter       Primal          Dual         Primal    Dual     Compl     Time
   0  -2.83333568e+06 -6.60644490e+03  1.20e+04 8.31e+01  6.96e+02   120s
   1  -1.82697085e+06 -5.50634835e+04  7.70e+03 4.76e+01  4.58e+02   120s
   2  -1.20019070e+06 -1.69669615e+05  5.05e+03 2.54e+01  2.90e+02   120s
   3  -5.09091289e+05 -1.63667995e+05  2.14e+03 1.25e-02  1.23e+02   120s
   4  -1.51355532e+05 -1.26361250e+05  6.40e+02 6.97e-03  3.94e+01   120s
   5  -9.09397563e+04 -9.78471731e+04  3.86e+02 4.49e-03  2.41e+01   120s
   6  -5.38459625e+04 -6.73870729e+04  2.30e+02 1.89e-03  1.41e+01   120s
   7  -5.35554183e+03 -3.62686992e+04  2.59e+01 5.05e-04  2.97e+00   120s
   8  -5.44823085e+02 -1.02837189e+04  5.46e+00 5.70e-05  7.97e-01   120s

Barrier performed 8 iterations in 119.88 seconds (263.69 work units)
Barrier solve interrupted - model solved by another algorithm

Concurrent spin time: 0.06s

Solved with dual simplex

Root simplex log...

Iteration    Objective       Primal Inf.    Dual Inf.      Time
    5368    6.8402889e+02   0.000000e+00   0.000000e+00    120s

Use crossover to convert LP symmetric solution to basic solution...

Root crossover log...

   26540 DPushes remaining with DInf 0.0000000e+00               121s
       0 DPushes remaining with DInf 0.0000000e+00               121s

  140329 PPushes remaining with PInf 0.0000000e+00               122s
Warning: 1 variables dropped from basis

Restart crossover...

  128224 variables added to crossover basis                      135s

   26540 DPushes remaining with DInf 0.0000000e+00               135s
       0 DPushes remaining with DInf 0.0000000e+00               136s

  140329 PPushes remaining with PInf 0.0000000e+00               136s
   56417 PPushes remaining with PInf 0.0000000e+00               140s
   38342 PPushes remaining with PInf 0.0000000e+00               145s
   25703 PPushes remaining with PInf 0.0000000e+00               150s
    9446 PPushes remaining with PInf 0.0000000e+00               155s
       0 PPushes remaining with PInf 0.0000000e+00               158s

  Push phase complete: Pinf 0.0000000e+00, Dinf 5.2734970e-10    158s


Root simplex log...

Iteration    Objective       Primal Inf.    Dual Inf.      Time
  171852    6.8402889e+02   0.000000e+00   0.000000e+00    158s
  171852    6.8402889e+02   0.000000e+00   0.000000e+00    159s

Root relaxation: objective 6.840289e+02, 171852 iterations, 44.41 seconds (80.56 work units)

    Nodes    |    Current Node    |     Objective Bounds      |     Work
 Expl Unexpl |  Obj  Depth IntInf | Incumbent    BestBd   Gap | It/Node Time

     0     0  684.02889    0 56100 1962.00000  684.02889  65.1%     -  594s
H    0     0                    1064.0000000  684.02889  35.7%     - 1034s
H    0     0                     916.0000000  684.02889  25.3%     - 1396s
     0     0  684.02889    0 56100  916.00000  684.02889  25.3%     - 1818s
     0     2  684.02889    0 56100  916.00000  684.02889  25.3%     - 6759s
